25 40
1 2 4
1 6 3
2 3 1
2 7 2
3 4 1
3 8 2
4 5 4
4 9 1
5 10 1
6 7 4
6 11 4
7 8 3
7 12 2
8 9 1
8 13 5
9 10 3
9 14 2
10 15 3
11 12 5
11 16 5
12 13 1
12 17 5
13 14 4
13 18 4
14 15 1
14 19 1
15 20 4
16 17 1
16 21 4
17 18 2
17 22 3
18 19 2
18 23 4
19 20 1
19 24 2
20 25 5
21 22 1
22 23 4
23 24 3
24 25 2
